\ Model uls
\ LP format - for model browsing. Use MPS format to capture full model detail.
Minimize
  x[0] + x[1] + x[2] + x[3] + x[4] + x[5] + x[6] + x[7] + x[8] + x[9]
   + x[10] + x[11] + x[12] + x[13] + x[14] + x[15] + x[16] + x[17] + x[18]
   + x[19] + x[20] + x[21] + x[22] + x[23] + x[24] + x[25] + x[26] + x[27]
   + x[28] + x[29] + x[30] + x[31] + x[32] + x[33] + x[34] + x[35] + x[36]
   + x[37] + x[38] + x[39] + x[40] + x[41] + x[42] + x[43] + x[44] + x[45]
   + x[46] + x[47] + x[48] + x[49] + x[50] + x[51] + 0.2 s[0] + 0.2 s[1]
   + 0.2 s[2] + 0.2 s[3] + 0.2 s[4] + 0.2 s[5] + 0.2 s[6] + 0.2 s[7]
   + 0.2 s[8] + 0.2 s[9] + 0.2 s[10] + 0.2 s[11] + 0.2 s[12] + 0.2 s[13]
   + 0.2 s[14] + 0.2 s[15] + 0.2 s[16] + 0.2 s[17] + 0.2 s[18] + 0.2 s[19]
   + 0.2 s[20] + 0.2 s[21] + 0.2 s[22] + 0.2 s[23] + 0.2 s[24] + 0.2 s[25]
   + 0.2 s[26] + 0.2 s[27] + 0.2 s[28] + 0.2 s[29] + 0.2 s[30] + 0.2 s[31]
   + 0.2 s[32] + 0.2 s[33] + 0.2 s[34] + 0.2 s[35] + 0.2 s[36] + 0.2 s[37]
   + 0.2 s[38] + 0.2 s[39] + 0.2 s[40] + 0.2 s[41] + 0.2 s[42] + 0.2 s[43]
   + 0.2 s[44] + 0.2 s[45] + 0.2 s[46] + 0.2 s[47] + 0.2 s[48] + 0.2 s[49]
   + 0.2 s[50] + 0.2 s[51] + 200 y[0] + 200 y[1] + 200 y[2] + 200 y[3]
   + 200 y[4] + 200 y[5] + 200 y[6] + 200 y[7] + 200 y[8] + 200 y[9]
   + 200 y[10] + 200 y[11] + 200 y[12] + 200 y[13] + 200 y[14] + 200 y[15]
   + 200 y[16] + 200 y[17] + 200 y[18] + 200 y[19] + 200 y[20] + 200 y[21]
   + 200 y[22] + 200 y[23] + 200 y[24] + 200 y[25] + 200 y[26] + 200 y[27]
   + 200 y[28] + 200 y[29] + 200 y[30] + 200 y[31] + 200 y[32] + 200 y[33]
   + 200 y[34] + 200 y[35] + 200 y[36] + 200 y[37] + 200 y[38] + 200 y[39]
   + 200 y[40] + 200 y[41] + 200 y[42] + 200 y[43] + 200 y[44] + 200 y[45]
   + 200 y[46] + 200 y[47] + 200 y[48] + 200 y[49] + 200 y[50] + 200 y[51]
Subject To
 R0: x[0] - s[0] = 104
 R1: x[1] + s[0] - s[1] = 108
 R2: x[2] + s[1] - s[2] = 88
 R3: x[3] + s[2] - s[3] = 108
 R4: x[4] + s[3] - s[4] = 105
 R5: x[5] + s[4] - s[5] = 97
 R6: x[6] + s[5] - s[6] = 107
 R7: x[7] + s[6] - s[7] = 113
 R8: x[8] + s[7] - s[8] = 100
 R9: x[9] + s[8] - s[9] = 107
 R10: x[10] + s[9] - s[10] = 93
 R11: x[11] + s[10] - s[11] = 102
 R12: x[12] + s[11] - s[12] = 108
 R13: x[13] + s[12] - s[13] = 95
 R14: x[14] + s[13] - s[14] = 84
 R15: x[15] + s[14] - s[15] = 84
 R16: x[16] + s[15] - s[16] = 94
 R17: x[17] + s[16] - s[17] = 87
 R18: x[18] + s[17] - s[18] = 88
 R19: x[19] + s[18] - s[19] = 91
 R20: x[20] + s[19] - s[20] = 103
 R21: x[21] + s[20] - s[21] = 103
 R22: x[22] + s[21] - s[22] = 94
 R23: x[23] + s[22] - s[23] = 110
 R24: x[24] + s[23] - s[24] = 97
 R25: x[25] + s[24] - s[25] = 91
 R26: x[26] + s[25] - s[26] = 113
 R27: x[27] + s[26] - s[27] = 97
 R28: x[28] + s[27] - s[28] = 101
 R29: x[29] + s[28] - s[29] = 109
 R30: x[30] + s[29] - s[30] = 115
 R31: x[31] + s[30] - s[31] = 100
 R32: x[32] + s[31] - s[32] = 91
 R33: x[33] + s[32] - s[33] = 98
 R34: x[34] + s[33] - s[34] = 94
 R35: x[35] + s[34] - s[35] = 93
 R36: x[36] + s[35] - s[36] = 94
 R37: x[37] + s[36] - s[37] = 100
 R38: x[38] + s[37] - s[38] = 108
 R39: x[39] + s[38] - s[39] = 97
 R40: x[40] + s[39] - s[40] = 104
 R41: x[41] + s[40] - s[41] = 105
 R42: x[42] + s[41] - s[42] = 129
 R43: x[43] + s[42] - s[43] = 93
 R44: x[44] + s[43] - s[44] = 99
 R45: x[45] + s[44] - s[45] = 101
 R46: x[46] + s[45] - s[46] = 100
 R47: x[47] + s[46] - s[47] = 93
 R48: x[48] + s[47] - s[48] = 105
 R49: x[49] + s[48] - s[49] = 83
 R50: x[50] + s[49] - s[50] = 76
 R51: x[51] + s[50] - s[51] = 93
 R52: x[0] - 5152 y[0] <= 0
 R53: x[1] - 5048 y[1] <= 0
 R54: x[2] - 4940 y[2] <= 0
 R55: x[3] - 4852 y[3] <= 0
 R56: x[4] - 4744 y[4] <= 0
 R57: x[5] - 4639 y[5] <= 0
 R58: x[6] - 4542 y[6] <= 0
 R59: x[7] - 4435 y[7] <= 0
 R60: x[8] - 4322 y[8] <= 0
 R61: x[9] - 4222 y[9] <= 0
 R62: x[10] - 4115 y[10] <= 0
 R63: x[11] - 4022 y[11] <= 0
 R64: x[12] - 3920 y[12] <= 0
 R65: x[13] - 3812 y[13] <= 0
 R66: x[14] - 3717 y[14] <= 0
 R67: x[15] - 3633 y[15] <= 0
 R68: x[16] - 3549 y[16] <= 0
 R69: x[17] - 3455 y[17] <= 0
 R70: x[18] - 3368 y[18] <= 0
 R71: x[19] - 3280 y[19] <= 0
 R72: x[20] - 3189 y[20] <= 0
 R73: x[21] - 3086 y[21] <= 0
 R74: x[22] - 2983 y[22] <= 0
 R75: x[23] - 2889 y[23] <= 0
 R76: x[24] - 2779 y[24] <= 0
 R77: x[25] - 2682 y[25] <= 0
 R78: x[26] - 2591 y[26] <= 0
 R79: x[27] - 2478 y[27] <= 0
 R80: x[28] - 2381 y[28] <= 0
 R81: x[29] - 2280 y[29] <= 0
 R82: x[30] - 2171 y[30] <= 0
 R83: x[31] - 2056 y[31] <= 0
 R84: x[32] - 1956 y[32] <= 0
 R85: x[33] - 1865 y[33] <= 0
 R86: x[34] - 1767 y[34] <= 0
 R87: x[35] - 1673 y[35] <= 0
 R88: x[36] - 1580 y[36] <= 0
 R89: x[37] - 1486 y[37] <= 0
 R90: x[38] - 1386 y[38] <= 0
 R91: x[39] - 1278 y[39] <= 0
 R92: x[40] - 1181 y[40] <= 0
 R93: x[41] - 1077 y[41] <= 0
 R94: x[42] - 972 y[42] <= 0
 R95: x[43] - 843 y[43] <= 0
 R96: x[44] - 750 y[44] <= 0
 R97: x[45] - 651 y[45] <= 0
 R98: x[46] - 550 y[46] <= 0
 R99: x[47] - 450 y[47] <= 0
 R100: x[48] - 357 y[48] <= 0
 R101: x[49] - 252 y[49] <= 0
 R102: x[50] - 169 y[50] <= 0
 R103: x[51] - 93 y[51] <= 0
 R104: s[51] = 0
Bounds
Binaries
 y[0] y[1] y[2] y[3] y[4] y[5] y[6] y[7] y[8] y[9] y[10] y[11] y[12] y[13]
 y[14] y[15] y[16] y[17] y[18] y[19] y[20] y[21] y[22] y[23] y[24] y[25]
 y[26] y[27] y[28] y[29] y[30] y[31] y[32] y[33] y[34] y[35] y[36] y[37]
 y[38] y[39] y[40] y[41] y[42] y[43] y[44] y[45] y[46] y[47] y[48] y[49]
 y[50] y[51]
End
